(set-logic QF_BV)

(declare-const __ESBMC_ptr_obj_start_0 (_ BitVec 64))

(declare-const __ESBMC_ptr_obj_end_0 (_ BitVec 64))

(declare-const __ESBMC_ptr_obj_start_1 (_ BitVec 64))

(declare-const __ESBMC_ptr_obj_end_1 (_ BitVec 64))

(declare-const |smt_conv::__ESBMC_ptr_addr_range_0..start0| (_ BitVec 64))

(declare-const |smt_conv::__ESBMC_ptr_addr_range_0..end0| (_ BitVec 64))

(declare-const |smt_conv::__ESBMC_ptr_addr_range_1..start0| (_ BitVec 64))

(declare-const |smt_conv::__ESBMC_ptr_addr_range_1..end0| (_ BitVec 64))

(declare-const |smt_conv::smt_conv::collate_array_vals::3..start0| (_ BitVec 64))

(declare-const |smt_conv::smt_conv::collate_array_vals::3..end0| (_ BitVec 64))

(declare-const |smt_conv::smt_conv::collate_array_vals::4..start0| (_ BitVec 64))

(declare-const |smt_conv::smt_conv::collate_array_vals::4..end0| (_ BitVec 64))

(declare-const |smt_conv::smt_conv::collate_array_vals::7..start0| (_ BitVec 64))

(declare-const |smt_conv::smt_conv::collate_array_vals::7..end0| (_ BitVec 64))

(declare-const |c:dijkstra2-both-nt.c@718@F@main@n?1!0&0#1| (_ BitVec 32))

(declare-const |nondet$symex::nondet279| (_ BitVec 32))

(declare-const |c:dijkstra2-both-nt.c@718@F@main@r?1!0&0#1| (_ BitVec 32))

(declare-const |goto_symex::guard?0!0&0#1| (_ BitVec 1))

(declare-const |goto_symex::guard?0!0&0#2| (_ BitVec 1))

(declare-const |goto_symex::guard?0!0&0#3| (_ BitVec 1))

(declare-const |goto_symex::guard?0!0&0#4| (_ BitVec 1))

(declare-const |goto_symex::guard?0!0&0#5| (_ BitVec 1))

(declare-const |goto_symex::guard?0!0&0#6| (_ BitVec 1))

(declare-const |goto_symex::guard?0!0&0#7| (_ BitVec 1))

(declare-const |goto_symex::guard?0!0&0#8| (_ BitVec 1))

(declare-const |goto_symex::guard?0!0&0#9| (_ BitVec 1))

(declare-const |goto_symex::guard?0!0&0#10| (_ BitVec 1))

(declare-const |goto_symex::guard?0!0&0#11| (_ BitVec 1))

(declare-const |goto_symex::guard?0!0&0#12| (_ BitVec 1))

(declare-const |goto_symex::guard?0!0&0#13| (_ BitVec 1))

(declare-const |goto_symex::guard?0!0&0#14| (_ BitVec 1))

(declare-const |goto_symex::guard?0!0&0#15| (_ BitVec 1))

(declare-const |goto_symex::guard?0!0&0#16| (_ BitVec 1))

(declare-const |goto_symex::guard?0!0&0#17| (_ BitVec 1))

(declare-const |goto_symex::guard?0!0&0#18| (_ BitVec 1))

(declare-const |goto_symex::guard?0!0&0#19| (_ BitVec 1))

(declare-const |goto_symex::guard?0!0&0#20| (_ BitVec 1))

(declare-const |goto_symex::guard?0!0&0#21| (_ BitVec 1))

(declare-const |goto_symex::guard?0!0&0#22| (_ BitVec 1))

(declare-const |goto_symex::guard?0!0&0#23| (_ BitVec 1))

(declare-const |goto_symex::guard?0!0&0#24| (_ BitVec 1))

(declare-const |goto_symex::guard?0!0&0#25| (_ BitVec 1))

(declare-const |goto_symex::guard?0!0&0#26| (_ BitVec 1))

(declare-const |goto_symex::guard?0!0&0#27| (_ BitVec 1))

(declare-const |goto_symex::guard?0!0&0#28| (_ BitVec 1))

(declare-const |goto_symex::guard?0!0&0#29| (_ BitVec 1))

(declare-const |goto_symex::guard?0!0&0#30| (_ BitVec 1))

(declare-const |goto_symex::guard?0!0&0#31| (_ BitVec 1))

(declare-const |goto_symex::guard?0!0&0#32| (_ BitVec 1))

(declare-const |goto_symex::guard?0!0&0#33| (_ BitVec 1))

(declare-const |goto_symex::guard?0!0&0#34| (_ BitVec 1))

(declare-const |goto_symex::guard?0!0&0#35| (_ BitVec 1))

(declare-const |goto_symex::guard?0!0&0#36| (_ BitVec 1))

(declare-const |goto_symex::guard?0!0&0#37| (_ BitVec 1))

(declare-const |goto_symex::guard?0!0&0#38| (_ BitVec 1))

(declare-const |goto_symex::guard?0!0&0#39| (_ BitVec 1))

(declare-const |goto_symex::guard?0!0&0#40| (_ BitVec 1))

(declare-const |goto_symex::guard?0!0&0#41| (_ BitVec 1))

(declare-const |goto_symex::guard?0!0&0#42| (_ BitVec 1))

(declare-const |goto_symex::guard?0!0&0#43| (_ BitVec 1))

(declare-const |goto_symex::guard?0!0&0#44| (_ BitVec 1))

(declare-const |goto_symex::guard?0!0&0#45| (_ BitVec 1))

(declare-const |goto_symex::guard?0!0&0#46| (_ BitVec 1))

(declare-const |goto_symex::guard?0!0&0#47| (_ BitVec 1))

(declare-const |goto_symex::guard?0!0&0#48| (_ BitVec 1))

(declare-const |goto_symex::guard?0!0&0#49| (_ BitVec 1))

(declare-const |goto_symex::guard?0!0&0#50| (_ BitVec 1))

(declare-const |goto_symex::guard?0!0&0#51| (_ BitVec 1))

(declare-const |goto_symex::guard?0!0&0#52| (_ BitVec 1))

(declare-const |goto_symex::guard?0!0&0#53| (_ BitVec 1))

(declare-const |goto_symex::guard?0!0&0#54| (_ BitVec 1))

(declare-const |goto_symex::guard?0!0&0#55| (_ BitVec 1))

(declare-const |goto_symex::guard?0!0&0#56| (_ BitVec 1))

(declare-const |goto_symex::guard?0!0&0#57| (_ BitVec 1))

(declare-const |goto_symex::guard?0!0&0#58| (_ BitVec 1))

(declare-const |goto_symex::guard?0!0&0#59| (_ BitVec 1))

(declare-const |goto_symex::guard?0!0&0#60| (_ BitVec 1))

(declare-const |goto_symex::guard?0!0&0#61| (_ BitVec 1))

(declare-const |goto_symex::guard?0!0&0#62| (_ BitVec 1))

(declare-const |goto_symex::guard?0!0&0#63| (_ BitVec 1))

(declare-const |goto_symex::guard?0!0&0#64| (_ BitVec 1))

(declare-const |goto_symex::guard?0!0&0#65| (_ BitVec 1))

(declare-const |goto_symex::guard?0!0&0#66| (_ BitVec 1))

(declare-const |goto_symex::guard?0!0&0#67| (_ BitVec 1))

(declare-const |goto_symex::guard?0!0&0#68| (_ BitVec 1))

(declare-const |goto_symex::guard?0!0&0#69| (_ BitVec 1))

(declare-const |goto_symex::guard?0!0&0#70| (_ BitVec 1))

(declare-const |goto_symex::guard?0!0&0#71| (_ BitVec 1))

(declare-const |goto_symex::guard?0!0&0#72| (_ BitVec 1))

(declare-const |goto_symex::guard?0!0&0#73| (_ BitVec 1))

(declare-const |goto_symex::guard?0!0&0#74| (_ BitVec 1))

(declare-const |goto_symex::guard?0!0&0#75| (_ BitVec 1))

(declare-const |goto_symex::guard?0!0&0#76| (_ BitVec 1))

(declare-const |goto_symex::guard?0!0&0#77| (_ BitVec 1))

(declare-const |goto_symex::guard?0!0&0#78| (_ BitVec 1))

(declare-const |goto_symex::guard?0!0&0#79| (_ BitVec 1))

(declare-const |goto_symex::guard?0!0&0#80| (_ BitVec 1))

(declare-const |goto_symex::guard?0!0&0#81| (_ BitVec 1))

(declare-const |goto_symex::guard?0!0&0#82| (_ BitVec 1))

(declare-const |goto_symex::guard?0!0&0#83| (_ BitVec 1))

(declare-const |goto_symex::guard?0!0&0#84| (_ BitVec 1))

(declare-const |goto_symex::guard?0!0&0#85| (_ BitVec 1))

(declare-const |goto_symex::guard?0!0&0#86| (_ BitVec 1))

(declare-const |goto_symex::guard?0!0&0#87| (_ BitVec 1))

(declare-const |goto_symex::guard?0!0&0#88| (_ BitVec 1))

(declare-const |goto_symex::guard?0!0&0#89| (_ BitVec 1))

(declare-const |goto_symex::guard?0!0&0#90| (_ BitVec 1))

(declare-const |goto_symex::guard?0!0&0#91| (_ BitVec 1))

(declare-const |goto_symex::guard?0!0&0#92| (_ BitVec 1))

(declare-const |goto_symex::guard?0!0&0#93| (_ BitVec 1))

(declare-const |goto_symex::guard?0!0&0#94| (_ BitVec 1))

(declare-const |goto_symex::guard?0!0&0#95| (_ BitVec 1))

(declare-const |goto_symex::guard?0!0&0#96| (_ BitVec 1))

(declare-const |goto_symex::guard?0!0&0#97| (_ BitVec 1))

(declare-const |goto_symex::guard?0!0&0#98| (_ BitVec 1))

(declare-const |goto_symex::guard?0!0&0#99| (_ BitVec 1))

(declare-const |goto_symex::guard?0!0&0#100| (_ BitVec 1))

(declare-const |goto_symex::guard?0!0&0#101| (_ BitVec 1))

(declare-const |goto_symex::guard?0!0&0#102| (_ BitVec 1))

(declare-const |goto_symex::guard?0!0&0#103| (_ BitVec 1))

(declare-const |goto_symex::guard?0!0&0#104| (_ BitVec 1))

(declare-const |goto_symex::guard?0!0&0#105| (_ BitVec 1))

(declare-const |goto_symex::guard?0!0&0#106| (_ BitVec 1))

(declare-const |goto_symex::guard?0!0&0#107| (_ BitVec 1))

(declare-const |goto_symex::guard?0!0&0#108| (_ BitVec 1))

(declare-const |goto_symex::guard?0!0&0#109| (_ BitVec 1))

(declare-const |goto_symex::guard?0!0&0#110| (_ BitVec 1))

(declare-const |goto_symex::guard?0!0&0#111| (_ BitVec 1))

(declare-const |goto_symex::guard?0!0&0#112| (_ BitVec 1))

(declare-const |goto_symex::guard?0!0&0#113| (_ BitVec 1))

(declare-const |goto_symex::guard?0!0&0#114| (_ BitVec 1))

(declare-const |goto_symex::guard?0!0&0#115| (_ BitVec 1))

(declare-const |goto_symex::guard?0!0&0#116| (_ BitVec 1))

(declare-const |goto_symex::guard?0!0&0#117| (_ BitVec 1))

(declare-const |goto_symex::guard?0!0&0#118| (_ BitVec 1))

(declare-const |goto_symex::guard?0!0&0#119| (_ BitVec 1))

(declare-const |goto_symex::guard?0!0&0#120| (_ BitVec 1))

(declare-const |goto_symex::guard?0!0&0#121| (_ BitVec 1))

(declare-const |goto_symex::guard?0!0&0#122| (_ BitVec 1))

(declare-const |goto_symex::guard?0!0&0#123| (_ BitVec 1))

(declare-const |goto_symex::guard?0!0&0#124| (_ BitVec 1))

(declare-const |goto_symex::guard?0!0&0#125| (_ BitVec 1))

(declare-const |goto_symex::guard?0!0&0#126| (_ BitVec 1))

(declare-const |goto_symex::guard?0!0&0#127| (_ BitVec 1))

(declare-const |goto_symex::guard?0!0&0#128| (_ BitVec 1))

(declare-const |goto_symex::guard?0!0&0#129| (_ BitVec 1))

(declare-const |goto_symex::guard?0!0&0#130| (_ BitVec 1))

(declare-const |goto_symex::guard?0!0&0#131| (_ BitVec 1))

(declare-const |goto_symex::guard?0!0&0#132| (_ BitVec 1))

(declare-const |goto_symex::guard?0!0&0#133| (_ BitVec 1))

(declare-const |goto_symex::guard?0!0&0#134| (_ BitVec 1))

(declare-const |goto_symex::guard?0!0&0#135| (_ BitVec 1))

(declare-const |goto_symex::guard?0!0&0#136| (_ BitVec 1))

(declare-const |goto_symex::guard?0!0&0#137| (_ BitVec 1))

(declare-const |goto_symex::guard?0!0&0#138| (_ BitVec 1))

(declare-const |goto_symex::guard?0!0&0#139| (_ BitVec 1))

(declare-const |goto_symex::guard?0!0&0#140| (_ BitVec 1))

(declare-const |goto_symex::guard?0!0&0#141| (_ BitVec 1))

(declare-const |goto_symex::guard?0!0&0#142| (_ BitVec 1))

(declare-const |goto_symex::guard?0!0&0#143| (_ BitVec 1))

(declare-const |goto_symex::guard?0!0&0#144| (_ BitVec 1))

(declare-const |goto_symex::guard?0!0&0#145| (_ BitVec 1))

(declare-const |goto_symex::guard?0!0&0#146| (_ BitVec 1))

(declare-const |goto_symex::guard?0!0&0#147| (_ BitVec 1))

(declare-const |goto_symex::guard?0!0&0#148| (_ BitVec 1))

(declare-const |goto_symex::guard?0!0&0#149| (_ BitVec 1))

(declare-const |goto_symex::guard?0!0&0#150| (_ BitVec 1))

(declare-const |goto_symex::guard?0!0&0#151| (_ BitVec 1))

(declare-const |goto_symex::guard?0!0&0#152| (_ BitVec 1))

(declare-const |goto_symex::guard?0!0&0#153| (_ BitVec 1))

(declare-const |goto_symex::guard?0!0&0#154| (_ BitVec 1))

(declare-const |goto_symex::guard?0!0&0#155| (_ BitVec 1))

(declare-const |goto_symex::guard?0!0&0#156| (_ BitVec 1))

(declare-const |goto_symex::guard?0!0&0#157| (_ BitVec 1))

(declare-const |goto_symex::guard?0!0&0#158| (_ BitVec 1))

(declare-const |goto_symex::guard?0!0&0#159| (_ BitVec 1))

(declare-const |goto_symex::guard?0!0&0#160| (_ BitVec 1))

(declare-const |goto_symex::guard?0!0&0#161| (_ BitVec 1))

(declare-const |goto_symex::guard?0!0&0#162| (_ BitVec 1))

(declare-const |goto_symex::guard?0!0&0#163| (_ BitVec 1))

(declare-const |goto_symex::guard?0!0&0#164| (_ BitVec 1))

(declare-const |goto_symex::guard?0!0&0#165| (_ BitVec 1))

(declare-const |goto_symex::guard?0!0&0#166| (_ BitVec 1))

(declare-const |goto_symex::guard?0!0&0#167| (_ BitVec 1))

(declare-const |goto_symex::guard?0!0&0#168| (_ BitVec 1))

(declare-const |goto_symex::guard?0!0&0#169| (_ BitVec 1))

(declare-const |goto_symex::guard?0!0&0#170| (_ BitVec 1))

(declare-const |goto_symex::guard?0!0&0#171| (_ BitVec 1))

(declare-const |goto_symex::guard?0!0&0#172| (_ BitVec 1))

(declare-const |goto_symex::guard?0!0&0#173| (_ BitVec 1))

(declare-const |goto_symex::guard?0!0&0#174| (_ BitVec 1))

(declare-const |goto_symex::guard?0!0&0#175| (_ BitVec 1))

(declare-const |goto_symex::guard?0!0&0#176| (_ BitVec 1))

(declare-const |goto_symex::guard?0!0&0#177| (_ BitVec 1))

(declare-const |goto_symex::guard?0!0&0#178| (_ BitVec 1))

(declare-const |goto_symex::guard?0!0&0#179| (_ BitVec 1))

(declare-const |goto_symex::guard?0!0&0#180| (_ BitVec 1))

(declare-const |goto_symex::guard?0!0&0#181| (_ BitVec 1))

(declare-const |goto_symex::guard?0!0&0#182| (_ BitVec 1))

(declare-const |goto_symex::guard?0!0&0#183| (_ BitVec 1))

(declare-const |goto_symex::guard?0!0&0#184| (_ BitVec 1))

(declare-const |goto_symex::guard?0!0&0#185| (_ BitVec 1))

(declare-const |goto_symex::guard?0!0&0#186| (_ BitVec 1))

(declare-const |goto_symex::guard?0!0&0#187| (_ BitVec 1))

(declare-const |goto_symex::guard?0!0&0#188| (_ BitVec 1))

(declare-const |goto_symex::guard?0!0&0#189| (_ BitVec 1))

(declare-const |goto_symex::guard?0!0&0#190| (_ BitVec 1))

(declare-const |goto_symex::guard?0!0&0#191| (_ BitVec 1))

(declare-const |goto_symex::guard?0!0&0#192| (_ BitVec 1))

(declare-const |goto_symex::guard?0!0&0#193| (_ BitVec 1))

(declare-const |goto_symex::guard?0!0&0#194| (_ BitVec 1))

(declare-const |goto_symex::guard?0!0&0#195| (_ BitVec 1))

(declare-const |goto_symex::guard?0!0&0#196| (_ BitVec 1))

(declare-const |goto_symex::guard?0!0&0#197| (_ BitVec 1))

(declare-const |goto_symex::guard?0!0&0#198| (_ BitVec 1))

(declare-const |goto_symex::guard?0!0&0#199| (_ BitVec 1))

(declare-const |goto_symex::guard?0!0&0#200| (_ BitVec 1))

(declare-const |goto_symex::guard?0!0&0#201| (_ BitVec 1))

(declare-const |goto_symex::guard?0!0&0#202| (_ BitVec 1))

(declare-const |goto_symex::guard?0!0&0#203| (_ BitVec 1))

(declare-const |goto_symex::guard?0!0&0#204| (_ BitVec 1))

(declare-const |goto_symex::guard?0!0&0#205| (_ BitVec 1))

(declare-const |goto_symex::guard?0!0&0#206| (_ BitVec 1))

(declare-const |goto_symex::guard?0!0&0#207| (_ BitVec 1))

(declare-const |goto_symex::guard?0!0&0#208| (_ BitVec 1))

(declare-const |goto_symex::guard?0!0&0#209| (_ BitVec 1))

(declare-const |goto_symex::guard?0!0&0#210| (_ BitVec 1))

(declare-const |goto_symex::guard?0!0&0#211| (_ BitVec 1))

(declare-const |goto_symex::guard?0!0&0#212| (_ BitVec 1))

(declare-const |goto_symex::guard?0!0&0#213| (_ BitVec 1))

(declare-const |goto_symex::guard?0!0&0#214| (_ BitVec 1))

(declare-const |goto_symex::guard?0!0&0#215| (_ BitVec 1))

(declare-const |goto_symex::guard?0!0&0#216| (_ BitVec 1))

(declare-const |goto_symex::guard?0!0&0#217| (_ BitVec 1))

(declare-const |goto_symex::guard?0!0&0#218| (_ BitVec 1))

(declare-const |goto_symex::guard?0!0&0#219| (_ BitVec 1))

(declare-const |goto_symex::guard?0!0&0#220| (_ BitVec 1))

(declare-const |goto_symex::guard?0!0&0#221| (_ BitVec 1))

(declare-const |goto_symex::guard?0!0&0#222| (_ BitVec 1))

(declare-const |goto_symex::guard?0!0&0#223| (_ BitVec 1))

(declare-const |goto_symex::guard?0!0&0#224| (_ BitVec 1))

(declare-const |goto_symex::guard?0!0&0#225| (_ BitVec 1))

(declare-const |goto_symex::guard?0!0&0#226| (_ BitVec 1))

(declare-const |goto_symex::guard?0!0&0#227| (_ BitVec 1))

(declare-const |goto_symex::guard?0!0&0#228| (_ BitVec 1))

(declare-const |goto_symex::guard?0!0&0#229| (_ BitVec 1))

(declare-const |goto_symex::guard?0!0&0#230| (_ BitVec 1))

(declare-const |goto_symex::guard?0!0&0#231| (_ BitVec 1))

(declare-const |goto_symex::guard?0!0&0#232| (_ BitVec 1))

(declare-const |goto_symex::guard?0!0&0#233| (_ BitVec 1))

(declare-const |goto_symex::guard?0!0&0#234| (_ BitVec 1))

(declare-const |goto_symex::guard?0!0&0#235| (_ BitVec 1))

(declare-const |goto_symex::guard?0!0&0#236| (_ BitVec 1))

(declare-const |goto_symex::guard?0!0&0#237| (_ BitVec 1))

(declare-const |goto_symex::guard?0!0&0#238| (_ BitVec 1))

(declare-const |goto_symex::guard?0!0&0#239| (_ BitVec 1))

(declare-const |goto_symex::guard?0!0&0#240| (_ BitVec 1))

(declare-const |goto_symex::guard?0!0&0#241| (_ BitVec 1))

(declare-const |goto_symex::guard?0!0&0#242| (_ BitVec 1))

(declare-const |goto_symex::guard?0!0&0#243| (_ BitVec 1))

(declare-const |goto_symex::guard?0!0&0#244| (_ BitVec 1))

(declare-const |goto_symex::guard?0!0&0#245| (_ BitVec 1))

(declare-const |goto_symex::guard?0!0&0#246| (_ BitVec 1))

(declare-const |goto_symex::guard?0!0&0#247| (_ BitVec 1))

(declare-const |goto_symex::guard?0!0&0#248| (_ BitVec 1))

(declare-const |goto_symex::guard?0!0&0#249| (_ BitVec 1))

(declare-const |goto_symex::guard?0!0&0#250| (_ BitVec 1))

(declare-const |goto_symex::guard?0!0&0#251| (_ BitVec 1))

(declare-const |goto_symex::guard?0!0&0#252| (_ BitVec 1))

(declare-const |goto_symex::guard?0!0&0#253| (_ BitVec 1))

(declare-const |goto_symex::guard?0!0&0#254| (_ BitVec 1))

(declare-const |goto_symex::guard?0!0&0#255| (_ BitVec 1))

(declare-const |goto_symex::guard?0!0&0#256| (_ BitVec 1))

(declare-const |goto_symex::guard?0!0&0#257| (_ BitVec 1))

(declare-const |goto_symex::guard?0!0&0#258| (_ BitVec 1))

(declare-const |goto_symex::guard?0!0&0#259| (_ BitVec 1))

(declare-const |goto_symex::guard?0!0&0#260| (_ BitVec 1))

(declare-const |goto_symex::guard?0!0&0#261| (_ BitVec 1))

(declare-const |goto_symex::guard?0!0&0#262| (_ BitVec 1))

(declare-const |goto_symex::guard?0!0&0#263| (_ BitVec 1))

(declare-const |goto_symex::guard?0!0&0#264| (_ BitVec 1))

(declare-const |goto_symex::guard?0!0&0#265| (_ BitVec 1))

(declare-const |goto_symex::guard?0!0&0#266| (_ BitVec 1))

(declare-const |goto_symex::guard?0!0&0#267| (_ BitVec 1))

(declare-const |goto_symex::guard?0!0&0#268| (_ BitVec 1))

(declare-const |goto_symex::guard?0!0&0#269| (_ BitVec 1))

(declare-const |goto_symex::guard?0!0&0#270| (_ BitVec 1))

(declare-const |goto_symex::guard?0!0&0#271| (_ BitVec 1))

(declare-const |goto_symex::guard?0!0&0#272| (_ BitVec 1))

(declare-const |goto_symex::guard?0!0&0#273| (_ BitVec 1))

(declare-const |goto_symex::guard?0!0&0#274| (_ BitVec 1))

(declare-const |goto_symex::guard?0!0&0#275| (_ BitVec 1))

(declare-const |goto_symex::guard?0!0&0#276| (_ BitVec 1))

(declare-const |goto_symex::guard?0!0&0#277| (_ BitVec 1))

(declare-const |goto_symex::guard?0!0&0#278| (_ BitVec 1))

(declare-const |goto_symex::guard?0!0&0#279| (_ BitVec 1))

(declare-const |goto_symex::guard?0!0&0#280| (_ BitVec 1))

(declare-const |goto_symex::guard?0!0&0#281| (_ BitVec 1))

(declare-const |execution_statet::guard_exec?0!0| (_ BitVec 1))

(assert 

 (= __ESBMC_ptr_obj_start_0 #b0000000000000000000000000000000000000000000000000000000000000000))

(assert 

 (= #b0000000000000000000000000000000000000000000000000000000000000000 __ESBMC_ptr_obj_end_0))

(assert 

 (= __ESBMC_ptr_obj_start_1 #b0000000000000000000000000000000000000000000000000000000000000001))

(assert 

 (= #b1111111111111111111111111111111111111111111111111111111111111111 __ESBMC_ptr_obj_end_1))

(assert 

 (= __ESBMC_ptr_obj_end_0 |smt_conv::__ESBMC_ptr_addr_range_0..end0|))

(assert 

 (= __ESBMC_ptr_obj_start_0 |smt_conv::__ESBMC_ptr_addr_range_0..start0|))

(assert 

 (= __ESBMC_ptr_obj_end_1 |smt_conv::__ESBMC_ptr_addr_range_1..end0|))

(assert 

 (= __ESBMC_ptr_obj_start_1 |smt_conv::__ESBMC_ptr_addr_range_1..start0|))

(assert 

 (= |smt_conv::smt_conv::collate_array_vals::3..end0| |smt_conv::smt_conv::collate_array_vals::4..end0|))

(assert 

 (= |smt_conv::smt_conv::collate_array_vals::3..start0| |smt_conv::smt_conv::collate_array_vals::4..start0|))

(assert 

 (= __ESBMC_ptr_obj_end_0 |smt_conv::smt_conv::collate_array_vals::7..end0|))

(assert 

 (= __ESBMC_ptr_obj_start_0 |smt_conv::smt_conv::collate_array_vals::7..start0|))

(assert 

 (= |c:dijkstra2-both-nt.c@718@F@main@n?1!0&0#1| |nondet$symex::nondet279|))

(assert 

 (= |c:dijkstra2-both-nt.c@718@F@main@n?1!0&0#1| |c:dijkstra2-both-nt.c@718@F@main@r?1!0&0#1|))

(assert 

 (= |goto_symex::guard?0!0&0#1| 

  (ite 

   (bvslt |c:dijkstra2-both-nt.c@718@F@main@n?1!0&0#1| #b00000000000000000000000000000001) #b1 #b0)))

(assert (= |goto_symex::guard?0!0&0#2| #b1))

(assert (= |goto_symex::guard?0!0&0#3| #b1))

(assert (= |goto_symex::guard?0!0&0#4| #b1))

(assert (= |goto_symex::guard?0!0&0#5| #b1))

(assert (= |goto_symex::guard?0!0&0#6| #b1))

(assert (= |goto_symex::guard?0!0&0#7| #b1))

(assert (= |goto_symex::guard?0!0&0#8| #b1))

(assert (= |goto_symex::guard?0!0&0#9| #b1))

(assert (= |goto_symex::guard?0!0&0#10| #b1))

(assert (= |goto_symex::guard?0!0&0#11| #b1))

(assert (= |goto_symex::guard?0!0&0#12| #b1))

(assert (= |goto_symex::guard?0!0&0#13| #b1))

(assert (= |goto_symex::guard?0!0&0#14| #b1))

(assert (= |goto_symex::guard?0!0&0#15| #b1))

(assert (= |goto_symex::guard?0!0&0#16| #b1))

(assert (= |goto_symex::guard?0!0&0#17| #b1))

(assert (= |goto_symex::guard?0!0&0#18| #b1))

(assert (= |goto_symex::guard?0!0&0#19| #b1))

(assert (= |goto_symex::guard?0!0&0#20| #b1))

(assert (= |goto_symex::guard?0!0&0#21| #b1))

(assert (= |goto_symex::guard?0!0&0#22| #b1))

(assert (= |goto_symex::guard?0!0&0#23| #b1))

(assert (= |goto_symex::guard?0!0&0#24| #b1))

(assert (= |goto_symex::guard?0!0&0#25| #b1))

(assert (= |goto_symex::guard?0!0&0#26| #b1))

(assert (= |goto_symex::guard?0!0&0#27| #b1))

(assert (= |goto_symex::guard?0!0&0#28| #b1))

(assert (= |goto_symex::guard?0!0&0#29| #b1))

(assert (= |goto_symex::guard?0!0&0#30| #b1))

(assert (= |goto_symex::guard?0!0&0#31| #b1))

(assert (= |goto_symex::guard?0!0&0#32| #b1))

(assert (= |goto_symex::guard?0!0&0#33| #b1))

(assert (= |goto_symex::guard?0!0&0#34| #b1))

(assert (= |goto_symex::guard?0!0&0#35| #b1))

(assert (= |goto_symex::guard?0!0&0#36| #b1))

(assert (= |goto_symex::guard?0!0&0#37| #b1))

(assert (= |goto_symex::guard?0!0&0#38| #b1))

(assert (= |goto_symex::guard?0!0&0#39| #b1))

(assert (= |goto_symex::guard?0!0&0#40| #b1))

(assert (= |goto_symex::guard?0!0&0#41| #b1))

(assert (= |goto_symex::guard?0!0&0#42| #b1))

(assert (= |goto_symex::guard?0!0&0#43| #b1))

(assert (= |goto_symex::guard?0!0&0#44| #b1))

(assert (= |goto_symex::guard?0!0&0#45| #b1))

(assert (= |goto_symex::guard?0!0&0#46| #b1))

(assert (= |goto_symex::guard?0!0&0#47| #b1))

(assert (= |goto_symex::guard?0!0&0#48| #b1))

(assert (= |goto_symex::guard?0!0&0#49| #b1))

(assert (= |goto_symex::guard?0!0&0#50| #b1))

(assert (= |goto_symex::guard?0!0&0#51| #b1))

(assert (= |goto_symex::guard?0!0&0#52| #b1))

(assert (= |goto_symex::guard?0!0&0#53| #b1))

(assert (= |goto_symex::guard?0!0&0#54| #b1))

(assert (= |goto_symex::guard?0!0&0#55| #b1))

(assert (= |goto_symex::guard?0!0&0#56| #b1))

(assert (= |goto_symex::guard?0!0&0#57| #b1))

(assert (= |goto_symex::guard?0!0&0#58| #b1))

(assert (= |goto_symex::guard?0!0&0#59| #b1))

(assert (= |goto_symex::guard?0!0&0#60| #b1))

(assert (= |goto_symex::guard?0!0&0#61| #b1))

(assert (= |goto_symex::guard?0!0&0#62| #b1))

(assert (= |goto_symex::guard?0!0&0#63| #b1))

(assert (= |goto_symex::guard?0!0&0#64| #b1))

(assert (= |goto_symex::guard?0!0&0#65| #b1))

(assert (= |goto_symex::guard?0!0&0#66| #b1))

(assert (= |goto_symex::guard?0!0&0#67| #b1))

(assert (= |goto_symex::guard?0!0&0#68| #b1))

(assert (= |goto_symex::guard?0!0&0#69| #b1))

(assert (= |goto_symex::guard?0!0&0#70| #b1))

(assert (= |goto_symex::guard?0!0&0#71| #b1))

(assert (= |goto_symex::guard?0!0&0#72| #b1))

(assert (= |goto_symex::guard?0!0&0#73| #b1))

(assert (= |goto_symex::guard?0!0&0#74| #b1))

(assert (= |goto_symex::guard?0!0&0#75| #b1))

(assert (= |goto_symex::guard?0!0&0#76| #b1))

(assert (= |goto_symex::guard?0!0&0#77| #b1))

(assert (= |goto_symex::guard?0!0&0#78| #b1))

(assert (= |goto_symex::guard?0!0&0#79| #b1))

(assert (= |goto_symex::guard?0!0&0#80| #b1))

(assert (= |goto_symex::guard?0!0&0#81| #b1))

(assert (= |goto_symex::guard?0!0&0#82| #b1))

(assert (= |goto_symex::guard?0!0&0#83| #b1))

(assert (= |goto_symex::guard?0!0&0#84| #b1))

(assert (= |goto_symex::guard?0!0&0#85| #b1))

(assert (= |goto_symex::guard?0!0&0#86| #b1))

(assert (= |goto_symex::guard?0!0&0#87| #b1))

(assert (= |goto_symex::guard?0!0&0#88| #b1))

(assert (= |goto_symex::guard?0!0&0#89| #b1))

(assert (= |goto_symex::guard?0!0&0#90| #b1))

(assert (= |goto_symex::guard?0!0&0#91| #b1))

(assert (= |goto_symex::guard?0!0&0#92| #b1))

(assert (= |goto_symex::guard?0!0&0#93| #b1))

(assert (= |goto_symex::guard?0!0&0#94| #b1))

(assert (= |goto_symex::guard?0!0&0#95| #b1))

(assert (= |goto_symex::guard?0!0&0#96| #b1))

(assert (= |goto_symex::guard?0!0&0#97| #b1))

(assert (= |goto_symex::guard?0!0&0#98| #b1))

(assert (= |goto_symex::guard?0!0&0#99| #b1))

(assert (= |goto_symex::guard?0!0&0#100| #b1))

(assert (= |goto_symex::guard?0!0&0#101| #b1))

(assert (= |goto_symex::guard?0!0&0#102| #b1))

(assert (= |goto_symex::guard?0!0&0#103| #b1))

(assert (= |goto_symex::guard?0!0&0#104| #b1))

(assert (= |goto_symex::guard?0!0&0#105| #b1))

(assert (= |goto_symex::guard?0!0&0#106| #b1))

(assert (= |goto_symex::guard?0!0&0#107| #b1))

(assert (= |goto_symex::guard?0!0&0#108| #b1))

(assert (= |goto_symex::guard?0!0&0#109| #b1))

(assert (= |goto_symex::guard?0!0&0#110| #b1))

(assert (= |goto_symex::guard?0!0&0#111| #b1))

(assert (= |goto_symex::guard?0!0&0#112| #b1))

(assert (= |goto_symex::guard?0!0&0#113| #b1))

(assert (= |goto_symex::guard?0!0&0#114| #b1))

(assert (= |goto_symex::guard?0!0&0#115| #b1))

(assert (= |goto_symex::guard?0!0&0#116| #b1))

(assert (= |goto_symex::guard?0!0&0#117| #b1))

(assert (= |goto_symex::guard?0!0&0#118| #b1))

(assert (= |goto_symex::guard?0!0&0#119| #b1))

(assert (= |goto_symex::guard?0!0&0#120| #b1))

(assert (= |goto_symex::guard?0!0&0#121| #b1))

(assert (= |goto_symex::guard?0!0&0#122| #b1))

(assert (= |goto_symex::guard?0!0&0#123| #b1))

(assert (= |goto_symex::guard?0!0&0#124| #b1))

(assert (= |goto_symex::guard?0!0&0#125| #b1))

(assert (= |goto_symex::guard?0!0&0#126| #b1))

(assert (= |goto_symex::guard?0!0&0#127| #b1))

(assert (= |goto_symex::guard?0!0&0#128| #b1))

(assert (= |goto_symex::guard?0!0&0#129| #b1))

(assert (= |goto_symex::guard?0!0&0#130| #b1))

(assert (= |goto_symex::guard?0!0&0#131| #b1))

(assert (= |goto_symex::guard?0!0&0#132| #b1))

(assert (= |goto_symex::guard?0!0&0#133| #b1))

(assert (= |goto_symex::guard?0!0&0#134| #b1))

(assert (= |goto_symex::guard?0!0&0#135| #b1))

(assert (= |goto_symex::guard?0!0&0#136| #b1))

(assert (= |goto_symex::guard?0!0&0#137| #b1))

(assert (= |goto_symex::guard?0!0&0#138| #b1))

(assert (= |goto_symex::guard?0!0&0#139| #b1))

(assert (= |goto_symex::guard?0!0&0#140| #b1))

(assert (= |goto_symex::guard?0!0&0#141| #b1))

(assert (= |goto_symex::guard?0!0&0#142| #b1))

(assert (= |goto_symex::guard?0!0&0#143| #b1))

(assert (= |goto_symex::guard?0!0&0#144| #b1))

(assert (= |goto_symex::guard?0!0&0#145| #b1))

(assert (= |goto_symex::guard?0!0&0#146| #b1))

(assert (= |goto_symex::guard?0!0&0#147| #b1))

(assert (= |goto_symex::guard?0!0&0#148| #b1))

(assert (= |goto_symex::guard?0!0&0#149| #b1))

(assert (= |goto_symex::guard?0!0&0#150| #b1))

(assert (= |goto_symex::guard?0!0&0#151| #b1))

(assert (= |goto_symex::guard?0!0&0#152| #b1))

(assert (= |goto_symex::guard?0!0&0#153| #b1))

(assert (= |goto_symex::guard?0!0&0#154| #b1))

(assert (= |goto_symex::guard?0!0&0#155| #b1))

(assert (= |goto_symex::guard?0!0&0#156| #b1))

(assert (= |goto_symex::guard?0!0&0#157| #b1))

(assert (= |goto_symex::guard?0!0&0#158| #b1))

(assert (= |goto_symex::guard?0!0&0#159| #b1))

(assert (= |goto_symex::guard?0!0&0#160| #b1))

(assert (= |goto_symex::guard?0!0&0#161| #b1))

(assert (= |goto_symex::guard?0!0&0#162| #b1))

(assert (= |goto_symex::guard?0!0&0#163| #b1))

(assert (= |goto_symex::guard?0!0&0#164| #b1))

(assert (= |goto_symex::guard?0!0&0#165| #b1))

(assert (= |goto_symex::guard?0!0&0#166| #b1))

(assert (= |goto_symex::guard?0!0&0#167| #b1))

(assert (= |goto_symex::guard?0!0&0#168| #b1))

(assert (= |goto_symex::guard?0!0&0#169| #b1))

(assert (= |goto_symex::guard?0!0&0#170| #b1))

(assert (= |goto_symex::guard?0!0&0#171| #b1))

(assert (= |goto_symex::guard?0!0&0#172| #b1))

(assert (= |goto_symex::guard?0!0&0#173| #b1))

(assert (= |goto_symex::guard?0!0&0#174| #b1))

(assert (= |goto_symex::guard?0!0&0#175| #b1))

(assert (= |goto_symex::guard?0!0&0#176| #b1))

(assert (= |goto_symex::guard?0!0&0#177| #b1))

(assert (= |goto_symex::guard?0!0&0#178| #b1))

(assert (= |goto_symex::guard?0!0&0#179| #b1))

(assert (= |goto_symex::guard?0!0&0#180| #b1))

(assert (= |goto_symex::guard?0!0&0#181| #b1))

(assert (= |goto_symex::guard?0!0&0#182| #b1))

(assert (= |goto_symex::guard?0!0&0#183| #b1))

(assert (= |goto_symex::guard?0!0&0#184| #b1))

(assert (= |goto_symex::guard?0!0&0#185| #b1))

(assert (= |goto_symex::guard?0!0&0#186| #b1))

(assert (= |goto_symex::guard?0!0&0#187| #b1))

(assert (= |goto_symex::guard?0!0&0#188| #b1))

(assert (= |goto_symex::guard?0!0&0#189| #b1))

(assert (= |goto_symex::guard?0!0&0#190| #b1))

(assert (= |goto_symex::guard?0!0&0#191| #b1))

(assert (= |goto_symex::guard?0!0&0#192| #b1))

(assert (= |goto_symex::guard?0!0&0#193| #b1))

(assert (= |goto_symex::guard?0!0&0#194| #b1))

(assert (= |goto_symex::guard?0!0&0#195| #b1))

(assert (= |goto_symex::guard?0!0&0#196| #b1))

(assert (= |goto_symex::guard?0!0&0#197| #b1))

(assert (= |goto_symex::guard?0!0&0#198| #b1))

(assert (= |goto_symex::guard?0!0&0#199| #b1))

(assert (= |goto_symex::guard?0!0&0#200| #b1))

(assert (= |goto_symex::guard?0!0&0#201| #b1))

(assert (= |goto_symex::guard?0!0&0#202| #b1))

(assert (= |goto_symex::guard?0!0&0#203| #b1))

(assert (= |goto_symex::guard?0!0&0#204| #b1))

(assert (= |goto_symex::guard?0!0&0#205| #b1))

(assert (= |goto_symex::guard?0!0&0#206| #b1))

(assert (= |goto_symex::guard?0!0&0#207| #b1))

(assert (= |goto_symex::guard?0!0&0#208| #b1))

(assert (= |goto_symex::guard?0!0&0#209| #b1))

(assert (= |goto_symex::guard?0!0&0#210| #b1))

(assert (= |goto_symex::guard?0!0&0#211| #b1))

(assert (= |goto_symex::guard?0!0&0#212| #b1))

(assert (= |goto_symex::guard?0!0&0#213| #b1))

(assert (= |goto_symex::guard?0!0&0#214| #b1))

(assert (= |goto_symex::guard?0!0&0#215| #b1))

(assert (= |goto_symex::guard?0!0&0#216| #b1))

(assert (= |goto_symex::guard?0!0&0#217| #b1))

(assert (= |goto_symex::guard?0!0&0#218| #b1))

(assert (= |goto_symex::guard?0!0&0#219| #b1))

(assert (= |goto_symex::guard?0!0&0#220| #b1))

(assert (= |goto_symex::guard?0!0&0#221| #b1))

(assert (= |goto_symex::guard?0!0&0#222| #b1))

(assert (= |goto_symex::guard?0!0&0#223| #b1))

(assert (= |goto_symex::guard?0!0&0#224| #b1))

(assert (= |goto_symex::guard?0!0&0#225| #b1))

(assert (= |goto_symex::guard?0!0&0#226| #b1))

(assert (= |goto_symex::guard?0!0&0#227| #b1))

(assert (= |goto_symex::guard?0!0&0#228| #b1))

(assert (= |goto_symex::guard?0!0&0#229| #b1))

(assert (= |goto_symex::guard?0!0&0#230| #b1))

(assert (= |goto_symex::guard?0!0&0#231| #b1))

(assert (= |goto_symex::guard?0!0&0#232| #b1))

(assert (= |goto_symex::guard?0!0&0#233| #b1))

(assert (= |goto_symex::guard?0!0&0#234| #b1))

(assert (= |goto_symex::guard?0!0&0#235| #b1))

(assert (= |goto_symex::guard?0!0&0#236| #b1))

(assert (= |goto_symex::guard?0!0&0#237| #b1))

(assert (= |goto_symex::guard?0!0&0#238| #b1))

(assert (= |goto_symex::guard?0!0&0#239| #b1))

(assert (= |goto_symex::guard?0!0&0#240| #b1))

(assert (= |goto_symex::guard?0!0&0#241| #b1))

(assert (= |goto_symex::guard?0!0&0#242| #b1))

(assert (= |goto_symex::guard?0!0&0#243| #b1))

(assert (= |goto_symex::guard?0!0&0#244| #b1))

(assert (= |goto_symex::guard?0!0&0#245| #b1))

(assert (= |goto_symex::guard?0!0&0#246| #b1))

(assert (= |goto_symex::guard?0!0&0#247| #b1))

(assert (= |goto_symex::guard?0!0&0#248| #b1))

(assert (= |goto_symex::guard?0!0&0#249| #b1))

(assert (= |goto_symex::guard?0!0&0#250| #b1))

(assert (= |goto_symex::guard?0!0&0#251| #b1))

(assert (= |goto_symex::guard?0!0&0#252| #b1))

(assert (= |goto_symex::guard?0!0&0#253| #b1))

(assert (= |goto_symex::guard?0!0&0#254| #b1))

(assert (= |goto_symex::guard?0!0&0#255| #b1))

(assert (= |goto_symex::guard?0!0&0#256| #b1))

(assert (= |goto_symex::guard?0!0&0#257| #b1))

(assert (= |goto_symex::guard?0!0&0#258| #b1))

(assert (= |goto_symex::guard?0!0&0#259| #b1))

(assert (= |goto_symex::guard?0!0&0#260| #b1))

(assert (= |goto_symex::guard?0!0&0#261| #b1))

(assert (= |goto_symex::guard?0!0&0#262| #b1))

(assert (= |goto_symex::guard?0!0&0#263| #b1))

(assert (= |goto_symex::guard?0!0&0#264| #b1))

(assert (= |goto_symex::guard?0!0&0#265| #b1))

(assert (= |goto_symex::guard?0!0&0#266| #b1))

(assert (= |goto_symex::guard?0!0&0#267| #b1))

(assert (= |goto_symex::guard?0!0&0#268| #b1))

(assert (= |goto_symex::guard?0!0&0#269| #b1))

(assert (= |goto_symex::guard?0!0&0#270| #b1))

(assert (= |goto_symex::guard?0!0&0#271| #b1))

(assert (= |goto_symex::guard?0!0&0#272| #b1))

(assert (= |goto_symex::guard?0!0&0#273| #b1))

(assert (= |goto_symex::guard?0!0&0#274| #b1))

(assert (= |goto_symex::guard?0!0&0#275| #b1))

(assert (= |goto_symex::guard?0!0&0#276| #b1))

(assert (= |goto_symex::guard?0!0&0#277| #b1))

(assert (= |goto_symex::guard?0!0&0#278| #b1))

(assert (= |goto_symex::guard?0!0&0#279| #b1))

(assert (= |goto_symex::guard?0!0&0#280| #b1))

(assert (= |goto_symex::guard?0!0&0#281| #b1))

(assert (= |execution_statet::guard_exec?0!0| #b1))

(assert (= |goto_symex::guard?0!0&0#1| #b1))

(check-sat)

(exit)
